(set-logic OMT_QF_NRA)
(set-info :smt-lib-version 2.6)
(set-info :source |
These benchmarks used in the paper:

  Dejan Jovanovic and Leonardo de Moura.  Solving Non-Linear Arithmetic.
  In IJCAR 2012, published as LNCS volume 7364, pp. 339--354.

The meti-tarski benchmarks are proof obligations extracted from the
Meti-Tarski project, see:

  B. Akbarpour and L. C. Paulson. MetiTarski: An automatic theorem prover
  for real-valued special functions. Journal of Automated Reasoning,
  44(3):175-205, 2010.

Submitted by Dejan Jovanovic for SMT-LIB.


|)
(set-info :category "industrial")
(set-info :status sat)
(declare-fun skoSXY () Real)
(declare-fun skoY () Real)
(declare-fun skoX () Real)
(declare-fun new_x_4 () Real)
(declare-fun new_x_5 () Real)
(declare-fun new_x_6 () Real)
(declare-fun new_x_7 () Real)
(declare-fun new_x_8 () Real)
(declare-fun new_x_9 () Real)
(declare-fun new_x_10 () Real)
(declare-fun new_x_11 () Real)
(declare-fun new_x_12 () Real)
(declare-fun new_x_13 () Real)
(declare-fun new_x_14 () Real)
(declare-fun new_x_15 () Real)
(declare-fun new_x_16 () Real)
(declare-fun new_x_17 () Real)
(declare-fun new_x_18 () Real)
(declare-fun new_x_19 () Real)
(declare-fun new_x_20 () Real)
(declare-fun new_x_21 () Real)
(declare-fun new_x_22 () Real)
(declare-fun new_x_23 () Real)
(declare-fun new_x_24 () Real)
(declare-fun new_x_25 () Real)
(declare-fun new_x_26 () Real)
(declare-fun new_x_27 () Real)
(declare-fun new_x_28 () Real)
(declare-fun new_x_29 () Real)
(declare-fun new_x_30 () Real)
(declare-fun new_x_31 () Real)
(declare-fun new_x_32 () Real)
(declare-fun new_x_33 () Real)
(declare-fun new_x_34 () Real)
(declare-fun new_x_35 () Real)
(declare-fun new_x_36 () Real)
(declare-fun new_x_37 () Real)
(declare-fun new_x_38 () Real)
(declare-fun new_x_39 () Real)
(declare-fun new_x_40 () Real)
(declare-fun new_x_41 () Real)
(declare-fun new_x_42 () Real)
(declare-fun new_x_43 () Real)
(declare-fun new_x_44 () Real)
(declare-fun new_x_45 () Real)
(declare-fun new_x_46 () Real)
(declare-fun new_x_47 () Real)
(declare-fun new_x_48 () Real)
(declare-fun new_x_49 () Real)
(declare-fun new_x_50 () Real)
(declare-fun new_x_51 () Real)
(declare-fun new_x_52 () Real)
(declare-fun new_x_53 () Real)
(declare-fun new_x_54 () Real)
(declare-fun new_x_55 () Real)
(declare-fun new_x_56 () Real)
(declare-fun new_x_57 () Real)
(declare-fun new_x_58 () Real)
(declare-fun new_x_59 () Real)
(declare-fun new_x_60 () Real)
(declare-fun new_x_61 () Real)
(declare-fun new_x_62 () Real)
(declare-fun new_x_63 () Real)
(declare-fun new_x_64 () Real)
(declare-fun new_x_65 () Real)
(declare-fun new_x_66 () Real)
(declare-fun new_x_67 () Real)
(declare-fun new_x_68 () Real)
(declare-fun new_x_69 () Real)
(declare-fun new_x_70 () Real)
(declare-fun new_x_71 () Real)
(declare-fun new_x_72 () Real)
(declare-fun new_x_73 () Real)
(declare-fun new_x_74 () Real)
(declare-fun new_x_75 () Real)
(declare-fun new_x_76 () Real)
(declare-fun new_x_77 () Real)
(declare-fun new_x_78 () Real)
(declare-fun new_x_79 () Real)
(declare-fun new_x_80 () Real)
(declare-fun new_x_81 () Real)
(declare-fun new_x_82 () Real)
(declare-fun new_x_83 () Real)
(declare-fun new_x_84 () Real)
(declare-fun new_x_85 () Real)
(declare-fun new_x_86 () Real)
(declare-fun new_x_87 () Real)
(declare-fun new_x_88 () Real)
(declare-fun new_x_89 () Real)
(declare-fun new_x_90 () Real)
(declare-fun new_x_91 () Real)
(declare-fun new_x_92 () Real)
(declare-fun new_x_93 () Real)
(declare-fun new_x_94 () Real)
(declare-fun new_x_95 () Real)
(declare-fun new_x_96 () Real)
(declare-fun new_x_97 () Real)
(declare-fun new_x_98 () Real)
(declare-fun new_x_99 () Real)
(declare-fun new_x_100 () Real)
(declare-fun new_x_101 () Real)
(declare-fun new_x_102 () Real)
(declare-fun new_x_103 () Real)
(assert (and (> new_x_4 0) (> new_x_5 0) (> new_x_6 0) (> new_x_7 0) (> new_x_8 0) (> new_x_9 0) (> new_x_10 0) (> new_x_11 0) (> new_x_12 0) (> new_x_13 0) (> new_x_14 0) (> new_x_15 0) (> new_x_16 0) (> new_x_17 0) (> new_x_18 0) (> new_x_19 0) (> new_x_20 0) (> new_x_21 0) (> new_x_22 0) (> new_x_23 0) (> new_x_24 0) (> new_x_25 0) (> new_x_26 0) (> new_x_27 0) (> new_x_28 0) (> new_x_29 0) (> new_x_30 0) (> new_x_31 0) (> new_x_32 0) (> new_x_33 0) (> new_x_34 0) (> new_x_35 0) (> new_x_36 0) (> new_x_37 0) (> new_x_38 0) (> new_x_39 0) (> new_x_40 0) (> new_x_41 0) (> new_x_42 0) (> new_x_43 0) (> new_x_44 0) (> new_x_45 0) (> new_x_46 0) (> new_x_47 0) (> new_x_48 0) (> new_x_49 0) (> new_x_50 0) (> new_x_51 0) (> new_x_52 0) (> new_x_53 0) (> new_x_54 0) (> new_x_55 0) (> new_x_56 0) (> new_x_57 0) (> new_x_58 0) (> new_x_59 0) (> new_x_60 0) (> new_x_61 0) (> new_x_62 0) (> new_x_63 0) (> new_x_64 0) (> new_x_65 0) (> new_x_66 0) (> new_x_67 0) (> new_x_68 0) (> new_x_69 0) (> new_x_70 0) (> new_x_71 0) (> new_x_72 0) (> new_x_73 0) (> new_x_74 0) (> new_x_75 0) (> new_x_76 0) (> new_x_77 0) (> new_x_78 0) (> new_x_79 0) (> new_x_80 0) (> new_x_81 0) (> new_x_82 0) (> new_x_83 0) (> new_x_84 0) (> new_x_85 0) (> new_x_86 0) (> new_x_87 0) (> new_x_88 0) (> new_x_89 0) (> new_x_90 0) (> new_x_91 0) (> new_x_92 0) (> new_x_93 0) (> new_x_94 0) (> new_x_95 0) (> new_x_96 0) (> new_x_97 0) (> new_x_98 0) (> new_x_99 0) (> new_x_100 0) (> new_x_101 0) (> new_x_102 0) (> new_x_103 0)))
(declare-fun skoT () Real)
(assert (and (not (= (+ (* skoSXY skoSXY) (* skoX (- 1))) skoY)) (and (<= skoY (/ 33 32)) (and (<= skoX 2) (and (<= (/ 3 2) skoX) (and (<= 1 skoY) (and (<= 0 skoT) (<= 0 skoSXY))))))))
(maximize (+ (* skoT skoX) skoSXY))
(check-sat)
(get-objectives)
(exit)
